<DOCUMENT>
<COLORDEN>-1</COLORDEN>
<TIPOORDEN>-1</TIPOORDEN>
<FILASPAGINA>0</FILASPAGINA>
<VISIBILIDAD>
	<VISIBLECOLUMNA name="punteo" >1</VISIBLECOLUMNA>
	<VISIBLECOLUMNA name="fecha" >1</VISIBLECOLUMNA>
	<VISIBLECOLUMNA name="codigo" >0</VISIBLECOLUMNA>
	<VISIBLECOLUMNA name="ordenasiento" >1</VISIBLECOLUMNA>
	<VISIBLECOLUMNA name="descripcioncuenta" >0</VISIBLECOLUMNA>
	<VISIBLECOLUMNA name="descripcionapunte" >0</VISIBLECOLUMNA>
	<VISIBLECOLUMNA name="descripcionasiento" >0</VISIBLECOLUMNA>
	<VISIBLECOLUMNA name="conceptocontable" >1</VISIBLECOLUMNA>
	<VISIBLECOLUMNA name="debe" >1</VISIBLECOLUMNA>
	<VISIBLECOLUMNA name="haber" >1</VISIBLECOLUMNA>
	<VISIBLECOLUMNA name="saldo" >1</VISIBLECOLUMNA>
	<VISIBLECOLUMNA name="idapunte" >0</VISIBLECOLUMNA>
	<VISIBLECOLUMNA name="codigoborrador" >0</VISIBLECOLUMNA>
	<VISIBLECOLUMNA name="idasiento" >0</VISIBLECOLUMNA>
	<VISIBLECOLUMNA name="iddiario" >0</VISIBLECOLUMNA>
	<VISIBLECOLUMNA name="idcuenta" >0</VISIBLECOLUMNA>
	<VISIBLECOLUMNA name="tipocuenta" >0</VISIBLECOLUMNA>
	<VISIBLECOLUMNA name="contrapartida" >0</VISIBLECOLUMNA>
	<VISIBLECOLUMNA name="codcontrapartida" >1</VISIBLECOLUMNA>
	<VISIBLECOLUMNA name="comentario" >0</VISIBLECOLUMNA>
	<VISIBLECOLUMNA name="idcanal" >0</VISIBLECOLUMNA>
	<VISIBLECOLUMNA name="nombrecanal" >1</VISIBLECOLUMNA>
	<VISIBLECOLUMNA name="marcaconciliacion" >0</VISIBLECOLUMNA>
	<VISIBLECOLUMNA name="idc_coste" >0</VISIBLECOLUMNA>
	<VISIBLECOLUMNA name="nombrec_coste" >1</VISIBLECOLUMNA>
	<VISIBLECOLUMNA name="idtipoiva" >0</VISIBLECOLUMNA>
	<VISIBLECOLUMNA name="orden" >0</VISIBLECOLUMNA>
</VISIBILIDAD>
<HORIZONTALHEADER>AAAA/wAAAAAAAAABAAAAAQAAAAAAAAAAAAAAAAAAAAAbdPjbBgAAABEAAAAQAAAAZAAAAA8AAABkAAAADgAAAGQAAAANAAAAZAAAAAwAAABkAAAACwAAAGQAAAAaAAAAZAAAABkAAABkAAAABgAAAGQAAAAXAAAAZAAAAAUAAABkAAAAFgAAAGQAAAAEAAAAZAAAABQAAABkAAAAAgAAAGQAAAATAAAAZAAAABEAAABkAAADpgAAABsBAQEAAAAAAAAAAAAAAAAAZP////8AAACEAAAAAAAAAA4AAABCAAAAAQAAAAAAAABwAAAAAQAAAAAAAAAAAAAAAQAAAAAAAAAuAAAAAQAAAAAAAAAAAAAAAwAAAAAAAAFYAAAAAQAAAAAAAACoAAAAAwAAAAAAAAAAAAAABwAAAAAAAABLAAAAAQAAAAAAAAAAAAAAAgAAAAAAAAAlAAAAAQAAAAAAAAAAAAAAAgAAAAAAAABWAAAAAQAAAAAAAAAAAAAAAgAAAAA=</HORIZONTALHEADER>
<COLUMNASHORIZONTALHEADER>AAAA/wAAAAAAAAABAAAAAQAAAAQAAAAAAAAAAAAAAAAEDAAAAAIAAAADAAAAAAAAAAIAAAAAAAAA5QAAAAQAAQEAAAAAAAAAAAABAAAAZP////8AAACEAAAAAAAAAAMAAACBAAAAAQAAAAMAAABkAAAAAQAAAAAAAAAAAAAAAgAAAAA=</COLUMNASHORIZONTALHEADER>
<ORDENCOLUMNAS>
	<ORDENCOLUMNA name="punteo" >0</ORDENCOLUMNA>
	<ORDENCOLUMNA name="fecha" >1</ORDENCOLUMNA>
	<ORDENCOLUMNA name="codigo" >2</ORDENCOLUMNA>
	<ORDENCOLUMNA name="ordenasiento" >3</ORDENCOLUMNA>
	<ORDENCOLUMNA name="descripcioncuenta" >4</ORDENCOLUMNA>
	<ORDENCOLUMNA name="descripcionapunte" >5</ORDENCOLUMNA>
	<ORDENCOLUMNA name="descripcionasiento" >6</ORDENCOLUMNA>
	<ORDENCOLUMNA name="conceptocontable" >7</ORDENCOLUMNA>
	<ORDENCOLUMNA name="debe" >8</ORDENCOLUMNA>
	<ORDENCOLUMNA name="haber" >9</ORDENCOLUMNA>
	<ORDENCOLUMNA name="saldo" >10</ORDENCOLUMNA>
	<ORDENCOLUMNA name="idapunte" >11</ORDENCOLUMNA>
	<ORDENCOLUMNA name="codigoborrador" >12</ORDENCOLUMNA>
	<ORDENCOLUMNA name="idasiento" >13</ORDENCOLUMNA>
	<ORDENCOLUMNA name="iddiario" >14</ORDENCOLUMNA>
	<ORDENCOLUMNA name="idcuenta" >15</ORDENCOLUMNA>
	<ORDENCOLUMNA name="tipocuenta" >16</ORDENCOLUMNA>
	<ORDENCOLUMNA name="contrapartida" >17</ORDENCOLUMNA>
	<ORDENCOLUMNA name="codcontrapartida" >18</ORDENCOLUMNA>
	<ORDENCOLUMNA name="comentario" >19</ORDENCOLUMNA>
	<ORDENCOLUMNA name="idcanal" >20</ORDENCOLUMNA>
	<ORDENCOLUMNA name="nombrecanal" >21</ORDENCOLUMNA>
	<ORDENCOLUMNA name="marcaconciliacion" >22</ORDENCOLUMNA>
	<ORDENCOLUMNA name="idc_coste" >23</ORDENCOLUMNA>
	<ORDENCOLUMNA name="nombrec_coste" >24</ORDENCOLUMNA>
	<ORDENCOLUMNA name="idtipoiva" >25</ORDENCOLUMNA>
	<ORDENCOLUMNA name="orden" >26</ORDENCOLUMNA>
</ORDENCOLUMNAS>
<VISIBILIDADMENU>1</VISIBILIDADMENU>
</DOCUMENT>
